; SWAP1 POP POP => POP POP
(set-option :produce-proofs true)
; 
(set-info :status unknown)
(declare-fun storage_t ((_ BitVec 256) (_ BitVec 256) Int (_ BitVec 256)) (_ BitVec 256))
(declare-fun storage_s ((_ BitVec 256) (_ BitVec 256) Int (_ BitVec 256)) (_ BitVec 256))
(declare-fun exc_halt_t (Int) Bool)
(declare-fun exc_halt_s (Int) Bool)
(declare-fun sc_t (Int) (_ BitVec 6))
(declare-fun stack_t ((_ BitVec 256) (_ BitVec 256) Int (_ BitVec 6)) (_ BitVec 256))
(declare-fun stack_s ((_ BitVec 256) (_ BitVec 256) Int (_ BitVec 6)) (_ BitVec 256))
(declare-fun sc_s (Int) (_ BitVec 6))
(declare-fun used_gas_t ((_ BitVec 256) (_ BitVec 256) Int) Int)
(declare-fun used_gas_s ((_ BitVec 256) (_ BitVec 256) Int) Int)
(assert
 (exists ((x_0 (_ BitVec 256)) (x_1 (_ BitVec 256)) )(let (($x8193 (forall ((w (_ BitVec 256)) )(let ((?x9999 (storage_t x_0 x_1 2 w)))
 (let ((?x8643 (storage_s x_0 x_1 3 w)))
 (= ?x8643 ?x9999))))
 ))
 (let (($x10349 (exc_halt_t 2)))
 (let (($x8103 (exc_halt_s 3)))
 (let (($x7228 (= $x8103 $x10349)))
 (let (($x11228 (forall ((n (_ BitVec 6)) )(let ((?x6198 (sc_t 2)))
 (let (($x9180 (bvsle ?x6198 n)))
 (let ((?x2006 (stack_t x_0 x_1 2 n)))
 (let ((?x8115 (stack_s x_0 x_1 3 n)))
 (let (($x1666 (= ?x8115 ?x2006)))
 (or $x1666 $x9180)))))))
 ))
 (let ((?x6198 (sc_t 2)))
 (let ((?x3851 (sc_s 3)))
 (let (($x2597 (= ?x3851 ?x6198)))
 (let (($x3118 (not (and $x2597 $x11228 $x7228 $x8193))))
 (let ((?x5522 (used_gas_t x_0 x_1 0)))
 (let ((?x5247 (used_gas_s x_0 x_1 0)))
 (let (($x10489 (= ?x5247 ?x5522)))
 (let (($x9238 (forall ((w (_ BitVec 256)) )(let ((?x10337 (storage_t x_0 x_1 0 w)))
 (let ((?x6787 (storage_s x_0 x_1 0 w)))
 (= ?x6787 ?x10337))))
 ))
 (let (($x56 (exc_halt_t 0)))
 (let (($x57 (exc_halt_s 0)))
 (let (($x58 (= $x57 $x56)))
 (let (($x11545 (forall ((n (_ BitVec 6)) )(let ((?x6737 (stack_t x_0 x_1 0 n)))
 (let ((?x141 (stack_s x_0 x_1 0 n)))
 (let (($x7483 (= ?x141 ?x6737)))
 (let ((?x63 (sc_t 0)))
 (let (($x5202 (bvsle ?x63 n)))
 (or $x5202 $x7483)))))))
 ))
 (let ((?x63 (sc_t 0)))
 (let ((?x72 (sc_s 0)))
 (let (($x73 (= ?x72 ?x63)))
 (let (($x1643 (= $x10349 (or (exc_halt_t 1) (not (bvsle (_ bv0 6) (bvadd (_ bv63 6) (sc_t 1))))))))
 (let (($x11760 (forall ((w (_ BitVec 256)) )(let ((?x9972 (storage_t x_0 x_1 1 w)))
 (let ((?x9999 (storage_t x_0 x_1 2 w)))
 (= ?x9999 ?x9972))))
 ))
 (let (($x11675 (forall ((n (_ BitVec 6)) )(let ((?x7071 (stack_t x_0 x_1 1 n)))
 (let ((?x2006 (stack_t x_0 x_1 2 n)))
 (let (($x4636 (= ?x2006 ?x7071)))
 (or $x4636 (bvsle (bvadd (_ bv63 6) (sc_t 1)) n))))))
 ))
 (let ((?x4166 (used_gas_t x_0 x_1 2)))
 (let (($x4607 (forall ((w (_ BitVec 256)) )(let ((?x10337 (storage_t x_0 x_1 0 w)))
 (let ((?x9972 (storage_t x_0 x_1 1 w)))
 (= ?x9972 ?x10337))))
 ))
 (let (($x2827 (forall ((n (_ BitVec 6)) )(let ((?x63 (sc_t 0)))
 (let ((?x7987 (bvadd (_ bv63 6) ?x63)))
 (let (($x6333 (bvsle ?x7987 n)))
 (or $x6333 (= (stack_t x_0 x_1 1 n) (stack_t x_0 x_1 0 n)))))))
 ))
 (let (($x7742 (= $x8103 (or (exc_halt_s 2) (not (bvsle (_ bv0 6) (bvadd (_ bv63 6) (sc_s 2))))))))
 (let (($x329 (forall ((w (_ BitVec 256)) )(let ((?x828 (storage_s x_0 x_1 2 w)))
 (let ((?x8643 (storage_s x_0 x_1 3 w)))
 (= ?x8643 ?x828))))
 ))
 (let (($x8726 (forall ((n (_ BitVec 6)) )(let ((?x2272 (sc_s 2)))
 (let ((?x11939 (bvadd (_ bv63 6) ?x2272)))
 (let (($x10973 (bvsle ?x11939 n)))
 (let ((?x915 (stack_s x_0 x_1 2 n)))
 (let ((?x8115 (stack_s x_0 x_1 3 n)))
 (let (($x9775 (= ?x8115 ?x915)))
 (or $x9775 $x10973))))))))
 ))
 (let ((?x2272 (sc_s 2)))
 (let ((?x11939 (bvadd (_ bv63 6) ?x2272)))
 (let (($x2609 (= ?x3851 ?x11939)))
 (let ((?x4556 (used_gas_s x_0 x_1 3)))
 (let (($x10052 (exc_halt_s 2)))
 (let (($x979 (= $x10052 (or (exc_halt_s 1) (not (bvsle (_ bv0 6) (bvadd (_ bv63 6) (sc_s 1))))))))
 (let (($x6196 (forall ((w (_ BitVec 256)) )(let ((?x571 (storage_s x_0 x_1 1 w)))
 (let ((?x828 (storage_s x_0 x_1 2 w)))
 (= ?x828 ?x571))))
 ))
 (let (($x5034 (forall ((n (_ BitVec 6)) )(let ((?x154 (sc_s 1)))
 (let ((?x7515 (bvadd (_ bv63 6) ?x154)))
 (let (($x7104 (bvsle ?x7515 n)))
 (let ((?x1723 (stack_s x_0 x_1 1 n)))
 (let ((?x915 (stack_s x_0 x_1 2 n)))
 (let (($x1681 (= ?x915 ?x1723)))
 (or $x1681 $x7104))))))))
 ))
 (let ((?x154 (sc_s 1)))
 (let ((?x7515 (bvadd (_ bv63 6) ?x154)))
 (let (($x3654 (= ?x2272 ?x7515)))
 (let ((?x7579 (used_gas_s x_0 x_1 2)))
 (let (($x8780 (exc_halt_s 1)))
 (let (($x4613 (= $x8780 (or $x57 (not (bvsle (_ bv0 6) (bvadd (_ bv62 6) ?x72)))))))
 (let (($x9863 (forall ((w (_ BitVec 256)) )(let ((?x6787 (storage_s x_0 x_1 0 w)))
 (let ((?x571 (storage_s x_0 x_1 1 w)))
 (= ?x571 ?x6787))))
 ))
 (let (($x3660 (forall ((n (_ BitVec 6)) )(let ((?x72 (sc_s 0)))
 (let ((?x7101 (bvadd (_ bv62 6) ?x72)))
 (let (($x9570 (bvsle ?x7101 n)))
 (or (= (stack_s x_0 x_1 1 n) (stack_s x_0 x_1 0 n)) $x9570)))))
 ))
 (let (($x6924 (= ?x154 ?x72)))
 (let ((?x8055 (used_gas_s x_0 x_1 1)))
 (let (($x9017 (= ?x8055 (+ 3 ?x5247))))
 (let ((?x10814 (bvadd (_ bv62 6) ?x154)))
 (let ((?x3791 (stack_s x_0 x_1 1 ?x10814)))
 (let (($x8527 (= ?x3791 (stack_s x_0 x_1 0 (bvadd (_ bv63 6) ?x72)))))
 (let ((?x5542 (stack_s x_0 x_1 1 ?x7515)))
 (let (($x7072 (= ?x5542 (stack_s x_0 x_1 0 (bvadd (_ bv62 6) ?x72)))))
 (let (($x47 (forall ((w (_ BitVec 256)) )(let ((?x6787 (storage_s x_0 x_1 0 w)))
 (= ?x6787 (_ bv0 256))))
 ))
 (let (($x9362 (= ?x5247 0)))
 (let (($x3623 (not $x57)))
 (let (($x7527 (= (stack_s x_0 x_1 0 (_ bv1 6)) x_1)))
 (let (($x1719 (= (stack_s x_0 x_1 0 (_ bv0 6)) x_0)))
 (let (($x10041 (= ?x72 (_ bv2 6))))
 (and $x10041 $x1719 $x7527 $x3623 $x9362 $x47 $x7072 $x8527 $x9017 $x6924 $x3660 $x9863 $x4613 (= ?x7579 (+ 2 ?x8055)) $x3654 $x5034 $x6196 $x979 (= ?x4556 (+ 2 ?x7579)) $x2609 $x8726 $x329 $x7742 (= (used_gas_t x_0 x_1 1) (+ 2 ?x5522)) (= (sc_t 1) (bvadd (_ bv63 6) ?x63)) $x2827 $x4607 (= (exc_halt_t 1) (or $x56 (not (bvsle (_ bv0 6) (bvadd (_ bv63 6) ?x63))))) (= ?x4166 (+ 2 (used_gas_t x_0 x_1 1))) (= ?x6198 (bvadd (_ bv63 6) (sc_t 1))) $x11675 $x11760 $x1643 $x73 $x11545 $x58 $x9238 $x10489 $x3118)))))))))))))))))))))))))))))))))))))))))))))))))))))))))))))
 )
(check-sat)
(get-proof)
